(set-logic QF_S)
(declare-fun var0 () String)
(declare-fun var1 () String)
(declare-fun var2 () String)
(declare-fun var3 () Int)
(declare-fun var4 () String)
(declare-fun var5 () Int)
(assert (> (str.len var0) (str.indexof var1 var2 var3)))
(assert (<= (str.len var4) (str.len var4)))
(assert (< (str.indexof var2 var0 var5) (str.len var0)))
(assert (not false))
(check-sat)